0
7,92
1
2
26,39,46,70,96
4
5
6
8
63,78
9
10
11
12
13
14
15
16
17
18
20
21
22
23
26
27
30
32
33
34
35
36
33,106
24,37,93,110
40
41
42
43
23,43,61,76
5,14,117,133
44
47
50
52
53
54
56
45,107,120,134,137,143
57
58
59
60
61
62
31,72,74
63
64
65
66
67
68
69
71
48,104
75
76
118,135
77
79
80
1,80
81
82
83
5,14,133
84
85
86
87
63,78
88
28,49,90,100,105,115
89
90
91
94
95
98
99
101
102
103
3,29,38,73,97,131
106
108
110
111
112
113
26,81
117
119
121
122
123
124
125
127
128
129
130
31,72,74,114
132
133
136
138
139
25,51,116,136,146
140
141
142
19,33,55,106,109,126
144
145
147
148
